c strEdges: 125  randomEdges: 504 
c degrees:  1  2 
c girth: Inf max: -43.604516  
c Hgirth mixed MAXCUT instance
c generated from an undirected graph
c to solve unweighted MaxCut
p cnf 140 1258
50 10 0
-50 -10 0
40 16 0
-40 -16 0
123 135 0
-123 -135 0
123 2 0
-123 -2 0
11 121 0
-11 -121 0
11 99 0
-11 -99 0
75 137 0
-75 -137 0
127 12 0
-127 -12 0
127 4 0
-127 -4 0
122 105 0
-122 -105 0
122 117 0
-122 -117 0
8 140 0
-8 -140 0
8 86 0
-8 -86 0
20 48 0
-20 -48 0
20 85 0
-20 -85 0
63 18 0
-63 -18 0
107 126 0
-107 -126 0
107 90 0
-107 -90 0
101 30 0
-101 -30 0
101 135 0
-101 -135 0
80 29 0
-80 -29 0
80 74 0
-80 -74 0
88 68 0
-88 -68 0
88 94 0
-88 -94 0
69 83 0
-69 -83 0
69 106 0
-69 -106 0
136 28 0
-136 -28 0
136 15 0
-136 -15 0
81 58 0
-81 -58 0
52 133 0
-52 -133 0
52 37 0
-52 -37 0
102 91 0
-102 -91 0
102 6 0
-102 -6 0
73 49 0
-73 -49 0
73 98 0
-73 -98 0
7 26 0
-7 -26 0
132 70 0
-132 -70 0
132 113 0
-132 -113 0
71 95 0
-71 -95 0
71 109 0
-71 -109 0
41 103 0
-41 -103 0
41 3 0
-41 -3 0
128 84 0
-128 -84 0
128 95 0
-128 -95 0
51 139 0
-51 -139 0
39 98 0
-39 -98 0
39 31 0
-39 -31 0
46 78 0
-46 -78 0
134 13 0
-134 -13 0
134 92 0
-134 -92 0
59 74 0
-59 -74 0
59 121 0
-59 -121 0
131 104 0
-131 -104 0
131 126 0
-131 -126 0
119 37 0
-119 -37 0
119 116 0
-119 -116 0
65 86 0
-65 -86 0
65 53 0
-65 -53 0
89 31 0
-89 -31 0
89 16 0
-89 -16 0
118 9 0
-118 -9 0
118 49 0
-118 -49 0
125 57 0
-125 -57 0
125 43 0
-125 -43 0
61 90 0
-61 -90 0
61 24 0
-61 -24 0
14 6 0
-14 -6 0
14 104 0
-14 -104 0
112 2 0
-112 -2 0
112 103 0
-112 -103 0
62 15 0
-62 -15 0
66 97 0
-66 -97 0
66 91 0
-66 -91 0
111 117 0
-111 -117 0
72 113 0
-72 -113 0
72 44 0
-72 -44 0
25 17 0
-25 -17 0
25 22 0
-25 -22 0
34 85 0
-34 -85 0
5 93 0
-5 -93 0
5 18 0
-5 -18 0
87 114 0
-87 -114 0
87 17 0
-87 -17 0
115 22 0
-115 -22 0
115 93 0
-115 -93 0
120 94 0
-120 -94 0
120 56 0
-120 -56 0
45 96 0
-45 -96 0
108 76 0
-108 -76 0
108 68 0
-108 -68 0
77 54 0
-77 -54 0
77 140 0
-77 -140 0
19 32 0
-19 -32 0
19 57 0
-19 -57 0
55 56 0
-55 -56 0
55 97 0
-55 -97 0
21 4 0
-21 -4 0
21 30 0
-21 -30 0
138 33 0
-138 -33 0
82 44 0
-82 -44 0
82 54 0
-82 -54 0
60 24 0
-60 -24 0
60 114 0
-60 -114 0
38 106 0
-38 -106 0
38 70 0
-38 -70 0
36 92 0
-36 -92 0
36 78 0
-36 -78 0
67 3 0
-67 -3 0
67 13 0
-67 -13 0
23 116 0
-23 -116 0
23 1 0
-23 -1 0
79 43 0
-79 -43 0
79 10 0
-79 -10 0
47 130 0
-47 -130 0
47 133 0
-47 -133 0
110 42 0
-110 -42 0
35 53 0
-35 -53 0
64 99 0
-64 -99 0
64 32 0
-64 -32 0
100 27 0
-100 -27 0
100 96 0
-100 -96 0
129 109 0
-129 -109 0
129 42 0
-129 -42 0
124 1 0
-124 -1 0
124 9 0
-124 -9 0
69 18 0
-69 -18 0
11 46 0
-11 -46 0
42 99 0
-42 -99 0
101 118 0
-101 -118 0
133 90 0
-133 -90 0
70 37 0
-70 -37 0
100 98 0
-100 -98 0
112 30 0
-112 -30 0
79 93 0
-79 -93 0
103 97 0
-103 -97 0
67 95 0
-67 -95 0
119 5 0
-119 -5 0
98 9 0
-98 -9 0
69 130 0
-69 -130 0
51 60 0
-51 -60 0
18 13 0
-18 -13 0
62 56 0
-62 -56 0
16 12 0
-16 -12 0
73 23 0
-73 -23 0
135 76 0
-135 -76 0
60 38 0
-60 -38 0
45 24 0
-45 -24 0
129 116 0
-129 -116 0
57 130 0
-57 -130 0
37 57 0
-37 -57 0
112 57 0
-112 -57 0
79 6 0
-79 -6 0
5 43 0
-5 -43 0
62 113 0
-62 -113 0
41 22 0
-41 -22 0
98 44 0
-98 -44 0
8 36 0
-8 -36 0
114 56 0
-114 -56 0
48 32 0
-48 -32 0
56 42 0
-56 -42 0
111 64 0
-111 -64 0
46 27 0
-46 -27 0
89 62 0
-89 -62 0
50 78 0
-50 -78 0
8 66 0
-8 -66 0
127 3 0
-127 -3 0
46 137 0
-46 -137 0
87 57 0
-87 -57 0
111 35 0
-111 -35 0
69 136 0
-69 -136 0
107 110 0
-107 -110 0
47 48 0
-47 -48 0
11 34 0
-11 -34 0
70 4 0
-70 -4 0
66 109 0
-66 -109 0
15 76 0
-15 -76 0
85 22 0
-85 -22 0
3 42 0
-3 -42 0
23 109 0
-23 -109 0
131 98 0
-131 -98 0
69 117 0
-69 -117 0
137 113 0
-137 -113 0
20 69 0
-20 -69 0
2 33 0
-2 -33 0
39 12 0
-39 -12 0
111 30 0
-111 -30 0
77 27 0
-77 -27 0
14 37 0
-14 -37 0
107 30 0
-107 -30 0
73 95 0
-73 -95 0
68 109 0
-68 -109 0
18 93 0
-18 -93 0
55 31 0
-55 -31 0
91 27 0
-91 -27 0
21 90 0
-21 -90 0
122 10 0
-122 -10 0
118 97 0
-118 -97 0
81 87 0
-81 -87 0
59 72 0
-59 -72 0
102 95 0
-102 -95 0
19 3 0
-19 -3 0
96 106 0
-96 -106 0
89 56 0
-89 -56 0
38 137 0
-38 -137 0
55 2 0
-55 -2 0
82 18 0
-82 -18 0
40 19 0
-40 -19 0
40 71 0
-40 -71 0
49 86 0
-49 -86 0
30 106 0
-30 -106 0
84 9 0
-84 -9 0
90 113 0
-90 -113 0
28 95 0
-28 -95 0
30 33 0
-30 -33 0
87 124 0
-87 -124 0
78 42 0
-78 -42 0
118 37 0
-118 -37 0
59 108 0
-59 -108 0
80 19 0
-80 -19 0
69 6 0
-69 -6 0
45 77 0
-45 -77 0
74 33 0
-74 -33 0
40 103 0
-40 -103 0
67 26 0
-67 -26 0
19 96 0
-19 -96 0
19 31 0
-19 -31 0
67 2 0
-67 -2 0
9 17 0
-9 -17 0
71 119 0
-71 -119 0
77 29 0
-77 -29 0
4 43 0
-4 -43 0
8 3 0
-8 -3 0
61 85 0
-61 -85 0
118 66 0
-118 -66 0
77 24 0
-77 -24 0
30 95 0
-30 -95 0
37 15 0
-37 -15 0
19 60 0
-19 -60 0
136 38 0
-136 -38 0
85 27 0
-85 -27 0
55 10 0
-55 -10 0
75 29 0
-75 -29 0
17 27 0
-17 -27 0
60 44 0
-60 -44 0
50 57 0
-50 -57 0
63 85 0
-63 -85 0
2 44 0
-2 -44 0
31 93 0
-31 -93 0
52 87 0
-52 -87 0
69 115 0
-69 -115 0
114 43 0
-114 -43 0
11 27 0
-11 -27 0
11 67 0
-11 -67 0
125 99 0
-125 -99 0
108 91 0
-108 -91 0
138 68 0
-138 -68 0
62 68 0
-62 -68 0
50 85 0
-50 -85 0
62 92 0
-62 -92 0
19 22 0
-19 -22 0
79 140 0
-79 -140 0
80 90 0
-80 -90 0
52 130 0
-52 -130 0
55 85 0
-55 -85 0
50 77 0
-50 -77 0
13 116 0
-13 -116 0
46 10 0
-46 -10 0
46 37 0
-46 -37 0
98 37 0
-98 -37 0
58 96 0
-58 -96 0
88 100 0
-88 -100 0
16 92 0
-16 -92 0
82 30 0
-82 -30 0
80 97 0
-80 -97 0
93 22 0
-93 -22 0
83 84 0
-83 -84 0
111 106 0
-111 -106 0
120 103 0
-120 -103 0
55 74 0
-55 -74 0
71 129 0
-71 -129 0
105 97 0
-105 -97 0
49 32 0
-49 -32 0
88 43 0
-88 -43 0
134 31 0
-134 -31 0
20 73 0
-20 -73 0
71 84 0
-71 -84 0
52 85 0
-52 -85 0
135 93 0
-135 -93 0
88 131 0
-88 -131 0
40 68 0
-40 -68 0
57 42 0
-57 -42 0
36 12 0
-36 -12 0
132 18 0
-132 -18 0
140 22 0
-140 -22 0
131 30 0
-131 -30 0
134 60 0
-134 -60 0
68 26 0
-68 -26 0
113 76 0
-113 -76 0
8 110 0
-8 -110 0
112 53 0
-112 -53 0
19 117 0
-19 -117 0
75 80 0
-75 -80 0
66 38 0
-66 -38 0
58 91 0
-58 -91 0
75 82 0
-75 -82 0
65 74 0
-65 -74 0
18 95 0
-18 -95 0
88 120 0
-88 -120 0
103 56 0
-103 -56 0
123 79 0
-123 -79 0
131 34 0
-131 -34 0
102 82 0
-102 -82 0
65 77 0
-65 -77 0
138 100 0
-138 -100 0
12 97 0
-12 -97 0
122 111 0
-122 -111 0
101 116 0
-101 -116 0
120 44 0
-120 -44 0
125 95 0
-125 -95 0
40 79 0
-40 -79 0
69 131 0
-69 -131 0
69 10 0
-69 -10 0
72 58 0
-72 -58 0
118 77 0
-118 -77 0
77 44 0
-77 -44 0
66 117 0
-66 -117 0
65 91 0
-65 -91 0
39 42 0
-39 -42 0
14 3 0
-14 -3 0
16 85 0
-16 -85 0
68 76 0
-68 -76 0
38 43 0
-38 -43 0
40 12 0
-40 -12 0
21 64 0
-21 -64 0
8 105 0
-8 -105 0
45 19 0
-45 -19 0
74 96 0
-74 -96 0
100 109 0
-100 -109 0
91 93 0
-91 -93 0
59 1 0
-59 -1 0
20 66 0
-20 -66 0
111 42 0
-111 -42 0
26 27 0
-26 -27 0
69 98 0
-69 -98 0
10 114 0
-10 -114 0
112 140 0
-112 -140 0
107 22 0
-107 -22 0
121 83 0
-121 -83 0
55 140 0
-55 -140 0
2 76 0
-2 -76 0
6 109 0
-6 -109 0
14 83 0
-14 -83 0
128 85 0
-128 -85 0
123 25 0
-123 -25 0
128 51 0
-128 -51 0
52 41 0
-52 -41 0
111 138 0
-111 -138 0
40 74 0
-40 -74 0
11 10 0
-11 -10 0
30 114 0
-30 -114 0
138 116 0
-138 -116 0
101 109 0
-101 -109 0
122 13 0
-122 -13 0
20 2 0
-20 -2 0
118 24 0
-118 -24 0
85 33 0
-85 -33 0
47 27 0
-47 -27 0
115 26 0
-115 -26 0
125 111 0
-125 -111 0
70 97 0
-70 -97 0
25 67 0
-25 -67 0
69 74 0
-69 -74 0
51 92 0
-51 -92 0
63 97 0
-63 -97 0
51 12 0
-51 -12 0
69 55 0
-69 -55 0
5 84 0
-5 -84 0
119 125 0
-119 -125 0
140 78 0
-140 -78 0
25 48 0
-25 -48 0
91 57 0
-91 -57 0
97 54 0
-97 -54 0
41 55 0
-41 -55 0
71 15 0
-71 -15 0
111 135 0
-111 -135 0
16 104 0
-16 -104 0
60 91 0
-60 -91 0
104 53 0
-104 -53 0
75 93 0
-75 -93 0
35 103 0
-35 -103 0
3 53 0
-3 -53 0
81 15 0
-81 -15 0
91 31 0
-91 -31 0
122 90 0
-122 -90 0
34 36 0
-34 -36 0
72 30 0
-72 -30 0
52 108 0
-52 -108 0
71 37 0
-71 -37 0
120 78 0
-120 -78 0
124 76 0
-124 -76 0
52 2 0
-52 -2 0
120 19 0
-120 -19 0
83 97 0
-83 -97 0
90 42 0
-90 -42 0
47 97 0
-47 -97 0
55 138 0
-55 -138 0
69 54 0
-69 -54 0
102 7 0
-102 -7 0
71 135 0
-71 -135 0
41 56 0
-41 -56 0
6 113 0
-6 -113 0
10 113 0
-10 -113 0
59 130 0
-59 -130 0
20 93 0
-20 -93 0
75 8 0
-75 -8 0
115 95 0
-115 -95 0
122 74 0
-122 -74 0
4 130 0
-4 -130 0
6 17 0
-6 -17 0
133 9 0
-133 -9 0
115 135 0
-115 -135 0
89 135 0
-89 -135 0
46 90 0
-46 -90 0
12 109 0
-12 -109 0
125 16 0
-125 -16 0
75 14 0
-75 -14 0
16 99 0
-16 -99 0
11 2 0
-11 -2 0
98 109 0
-98 -109 0
54 44 0
-54 -44 0
75 128 0
-75 -128 0
111 26 0
-111 -26 0
16 135 0
-16 -135 0
110 113 0
-110 -113 0
65 21 0
-65 -21 0
117 113 0
-117 -113 0
84 74 0
-84 -74 0
115 116 0
-115 -116 0
39 53 0
-39 -53 0
126 78 0
-126 -78 0
110 121 0
-110 -121 0
82 76 0
-82 -76 0
35 92 0
-35 -92 0
126 28 0
-126 -28 0
126 24 0
-126 -24 0
38 114 0
-38 -114 0
89 139 0
-89 -139 0
94 56 0
-94 -56 0
95 9 0
-95 -9 0
5 90 0
-5 -90 0
110 78 0
-110 -78 0
101 1 0
-101 -1 0
48 30 0
-48 -30 0
98 2 0
-98 -2 0
119 137 0
-119 -137 0
52 36 0
-52 -36 0
125 129 0
-125 -129 0
40 22 0
-40 -22 0
40 88 0
-40 -88 0
140 4 0
-140 -4 0
12 114 0
-12 -114 0
50 70 0
-50 -70 0
111 76 0
-111 -76 0
111 72 0
-111 -72 0
38 74 0
-38 -74 0
111 140 0
-111 -140 0
8 98 0
-8 -98 0
35 76 0
-35 -76 0
88 69 0
-88 -69 0
20 18 0
-20 -18 0
140 113 0
-140 -113 0
77 12 0
-77 -12 0
124 58 0
-124 -58 0
101 139 0
-101 -139 0
107 55 0
-107 -55 0
34 138 0
-34 -138 0
93 54 0
-93 -54 0
131 55 0
-131 -55 0
105 1 0
-105 -1 0
20 47 0
-20 -47 0
122 92 0
-122 -92 0
14 112 0
-14 -112 0
61 2 0
-61 -2 0
136 134 0
-136 -134 0
18 116 0
-18 -116 0
11 97 0
-11 -97 0
52 65 0
-52 -65 0
47 28 0
-47 -28 0
5 109 0
-5 -109 0
29 90 0
-29 -90 0
110 2 0
-110 -2 0
60 140 0
-60 -140 0
23 100 0
-23 -100 0
15 85 0
-15 -85 0
52 58 0
-52 -58 0
133 78 0
-133 -78 0
30 103 0
-30 -103 0
122 61 0
-122 -61 0
54 24 0
-54 -24 0
14 126 0
-14 -126 0
78 3 0
-78 -3 0
89 74 0
-89 -74 0
20 80 0
-20 -80 0
95 109 0
-95 -109 0
55 113 0
-55 -113 0
75 136 0
-75 -136 0
16 114 0
-16 -114 0
37 22 0
-37 -22 0
8 108 0
-8 -108 0
135 94 0
-135 -94 0
132 6 0
-132 -6 0
136 96 0
-136 -96 0
70 31 0
-70 -31 0
6 76 0
-6 -76 0
108 117 0
-108 -117 0
20 101 0
-20 -101 0
84 106 0
-84 -106 0
80 35 0
-80 -35 0
135 74 0
-135 -74 0
2 43 0
-2 -43 0
134 129 0
-134 -129 0
40 9 0
-40 -9 0
138 121 0
-138 -121 0
41 126 0
-41 -126 0
26 70 0
-26 -70 0
122 98 0
-122 -98 0
115 44 0
-115 -44 0
21 133 0
-21 -133 0
22 42 0
-22 -42 0
45 82 0
-45 -82 0
51 29 0
-51 -29 0
125 97 0
-125 -97 0
25 83 0
-25 -83 0
123 14 0
-123 -14 0
81 135 0
-81 -135 0
45 31 0
-45 -31 0
123 46 0
-123 -46 0
134 67 0
-134 -67 0
71 16 0
-71 -16 0
48 29 0
-48 -29 0
49 139 0
-49 -139 0
107 7 0
-107 -7 0
101 105 0
-101 -105 0
71 59 0
-71 -59 0
18 57 0
-18 -57 0
38 37 0
-38 -37 0
101 59 0
-101 -59 0
122 39 0
-122 -39 0
49 3 0
-49 -3 0
80 102 0
-80 -102 0
75 121 0
-75 -121 0
88 84 0
-88 -84 0
34 67 0
-34 -67 0
128 89 0
-128 -89 0
107 29 0
-107 -29 0
88 59 0
-88 -59 0
11 30 0
-11 -30 0
66 110 0
-66 -110 0
100 53 0
-100 -53 0
4 92 0
-4 -92 0
132 124 0
-132 -124 0
107 26 0
-107 -26 0
26 117 0
-26 -117 0
101 39 0
-101 -39 0
61 9 0
-61 -9 0
8 21 0
-8 -21 0
45 114 0
-45 -114 0
3 109 0
-3 -109 0
98 54 0
-98 -54 0
120 36 0
-120 -36 0
11 3 0
-11 -3 0
128 138 0
-128 -138 0
61 32 0
-61 -32 0
46 110 0
-46 -110 0
110 130 0
-110 -130 0
80 54 0
-80 -54 0
61 103 0
-61 -103 0
7 140 0
-7 -140 0
75 102 0
-75 -102 0
109 1 0
-109 -1 0
122 102 0
-122 -102 0
41 135 0
-41 -135 0
129 57 0
-129 -57 0
68 90 0
-68 -90 0
119 120 0
-119 -120 0
58 26 0
-58 -26 0
101 106 0
-101 -106 0
23 49 0
-23 -49 0
20 36 0
-20 -36 0
18 1 0
-18 -1 0
67 9 0
-67 -9 0
2 109 0
-2 -109 0
79 74 0
-79 -74 0
63 56 0
-63 -56 0
72 25 0
-72 -25 0
66 94 0
-66 -94 0
95 15 0
-95 -15 0
26 43 0
-26 -43 0
101 124 0
-101 -124 0
107 68 0
-107 -68 0
87 48 0
-87 -48 0
11 53 0
-11 -53 0
119 109 0
-119 -109 0
127 24 0
-127 -24 0
6 4 0
-6 -4 0
79 78 0
-79 -78 0
52 3 0
-52 -3 0
17 116 0
-17 -116 0
135 3 0
-135 -3 0
46 114 0
-46 -114 0
120 16 0
-120 -16 0
19 124 0
-19 -124 0
124 42 0
-124 -42 0
136 83 0
-136 -83 0
127 136 0
-127 -136 0
108 15 0
-108 -15 0
49 56 0
-49 -56 0
136 36 0
-136 -36 0
86 54 0
-86 -54 0
14 98 0
-14 -98 0
12 78 0
-12 -78 0
50 62 0
-50 -62 0
113 92 0
-113 -92 0
51 129 0
-51 -129 0
126 53 0
-126 -53 0
139 3 0
-139 -3 0
137 99 0
-137 -99 0
122 120 0
-122 -120 0
128 137 0
-128 -137 0
